set VV := 0 1 2 3 4 5 6 7 8 9 10 11 12 13 14 15 16 17 18 19 20 21 22 23 24 25 26 27 28 29 30 31 32 33 34 35 36 37 38 39 40 41 42 43 44 ;
set VS := 0 1 2 3 4 5 6 7 8 9 10 11 12 13 14 15 16 17 18 19 20 21 22 23 24 25 26 27 28 29 30 31 32 33 34 35 36 37 38 39 40 41 42 43 44 45 46 47 48 49 50 51 52 53 54 55 56 57 58 59 60 61 62 63 64 65 66 67 68 69 70 71 72 73 74 75 76 77 78 79 80 81 82 83 84 85 86 87 88 89 90 91 92 93 ;
param cv := 
0 17
1 15
2 11
3 12
4 24
5 25
6 10
7 20
8 13
9 25
10 13
11 25
12 24
13 23
14 10
15 16
16 10
17 21
18 21
19 14
20 11
21 19
22 15
23 10
24 14
25 18
26 10
27 13
28 10
29 14
30 13
31 14
32 24
33 13
34 19
35 24
36 23
37 20
38 14
39 23
40 15
41 22
42 21
43 15
44 12
;
param cs := 
0 33
1 23
2 20
3 39
4 20
5 29
6 40
7 25
8 28
9 22
10 33
11 24
12 23
13 28
14 35
15 31
16 34
17 38
18 24
19 32
20 23
21 20
22 34
23 31
24 31
25 33
26 38
27 22
28 40
29 25
30 31
31 26
32 30
33 21
34 30
35 25
36 33
37 29
38 27
39 22
40 36
41 21
42 27
43 40
44 32
45 40
46 34
47 30
48 38
49 29
50 37
51 33
52 31
53 20
54 39
55 38
56 32
57 39
58 27
59 32
60 36
61 38
62 26
63 40
64 23
65 23
66 21
67 21
68 31
69 31
70 36
71 24
72 27
73 40
74 23
75 26
76 35
77 30
78 20
79 35
80 32
81 36
82 27
83 31
84 31
85 25
86 37
87 27
88 20
89 39
90 20
91 20
92 26
93 37
;
param bv:	 0 1 2 3 4 5 6 7 8 9 10 11 12 13 14 15 16 17 18 19 20 21 22 23 24 25 26 27 28 29 30 31 32 33 34 35 36 37 38 39 40 41 42 43 44 := 
		0 0 0 0 0 0 0 0 0 0 0 0 0 0 0 0 0 0 10 0 0 22 0 0 0 0 0 0 0 0 25 0 0 0 0 0 0 0 0 0 0 0 0 0 15 0 
		1 0 0 15 0 12 13 0 0 0 0 0 0 0 0 0 0 20 0 0 20 0 0 0 0 0 23 0 0 0 0 0 0 0 0 0 0 21 0 0 0 0 0 0 0 14 
		2 0 0 0 0 12 23 0 0 0 0 0 0 0 0 0 0 0 0 15 0 0 14 0 13 0 0 18 22 0 0 0 0 0 0 21 0 0 0 0 0 0 0 0 0 0 
		3 0 0 0 0 0 0 0 0 14 0 0 0 0 0 0 0 0 0 0 0 0 14 0 0 0 0 0 0 15 0 0 0 0 0 0 0 16 0 0 14 0 0 0 0 0 
		4 0 0 0 0 0 15 16 0 0 0 0 0 0 0 0 0 0 0 0 0 0 0 0 12 0 13 0 0 0 0 0 0 0 0 0 0 0 0 0 0 25 0 0 0 0 
		5 0 0 0 0 0 0 12 11 0 0 0 0 0 0 0 0 14 0 0 0 0 0 0 0 0 0 0 0 0 0 0 0 0 0 0 0 0 0 0 0 0 0 0 0 0 
		6 0 0 0 0 0 0 0 0 0 15 25 0 0 0 0 0 0 0 0 0 0 0 0 0 0 0 0 0 15 0 0 13 0 0 24 0 0 13 0 0 18 0 0 0 18 
		7 0 0 0 0 0 0 0 0 0 0 0 0 0 0 0 0 0 0 0 0 0 0 0 0 0 0 0 0 0 0 19 0 0 0 0 0 0 0 0 0 0 0 15 0 0 
		8 0 0 0 0 0 0 0 0 0 0 16 0 0 0 0 0 0 15 0 0 0 0 0 0 0 0 0 0 0 12 0 0 0 0 11 0 0 0 0 0 0 0 0 0 0 
		9 0 0 0 0 0 0 0 0 0 0 0 0 0 14 11 0 0 0 0 0 0 0 0 0 12 0 0 0 0 0 0 0 0 0 0 0 0 0 24 0 0 0 20 0 0 
		10 0 0 0 0 0 0 0 0 0 0 0 0 0 0 0 0 0 0 0 22 0 0 0 0 0 0 0 0 0 0 0 0 0 0 0 0 24 0 0 0 0 0 0 0 0 
		11 0 0 0 0 0 0 0 0 0 0 0 0 0 0 0 0 0 0 0 20 0 0 0 0 0 0 0 0 0 0 0 0 0 0 0 0 0 0 0 0 0 0 0 0 0 
		12 0 0 0 0 0 0 0 0 0 0 0 0 0 0 0 0 0 0 0 0 18 21 0 0 0 0 0 0 0 0 16 18 0 0 0 14 0 0 0 0 0 0 0 0 0 
		13 0 0 0 0 0 0 0 0 0 0 0 0 0 0 0 0 10 0 0 0 0 0 0 0 0 0 0 0 0 0 0 0 0 21 0 0 19 0 13 0 0 0 0 0 0 
		14 0 0 0 0 0 0 0 0 0 0 0 0 0 0 0 0 0 0 0 0 0 0 0 0 23 0 0 0 0 10 0 0 0 0 0 0 0 0 0 0 0 0 0 0 0 
		15 0 0 0 0 0 0 0 0 0 0 0 0 0 0 0 0 0 0 20 0 23 0 0 0 0 12 0 0 0 0 23 0 0 0 0 0 0 0 0 0 0 0 0 0 0 
		16 0 0 0 0 0 0 0 0 0 0 0 0 0 0 0 0 0 0 0 0 0 0 0 0 0 0 0 0 0 0 0 0 0 0 0 0 0 0 15 0 0 0 0 0 0 
		17 0 0 0 0 0 0 0 0 0 0 0 0 0 0 0 0 0 0 0 0 0 0 0 0 0 0 0 15 0 0 0 0 0 0 0 0 0 13 0 0 0 25 0 0 0 
		18 0 0 0 0 0 0 0 0 0 0 0 0 0 0 0 0 0 0 0 0 0 0 0 0 25 0 0 0 0 0 0 22 0 0 0 13 0 0 0 0 17 0 0 0 21 
		19 0 0 0 0 0 0 0 0 0 0 0 0 0 0 0 0 0 0 0 0 0 0 0 0 16 0 0 0 0 19 0 0 14 0 0 0 0 0 0 0 0 0 0 0 0 
		20 0 0 0 0 0 0 0 0 0 0 0 0 0 0 0 0 0 0 0 0 0 0 0 0 0 24 0 0 0 0 0 0 0 0 0 19 0 0 0 0 0 0 0 0 0 
		21 0 0 0 0 0 0 0 0 0 0 0 0 0 0 0 0 0 0 0 0 0 0 0 0 0 0 0 0 0 0 0 0 0 0 0 0 0 0 0 0 0 0 15 0 0 
		22 0 0 0 0 0 0 0 0 0 0 0 0 0 0 0 0 0 0 0 0 0 0 0 0 0 0 0 14 25 0 0 0 0 0 0 0 0 0 0 0 0 0 0 20 0 
		23 0 0 0 0 0 0 0 0 0 0 0 0 0 0 0 0 0 0 0 0 0 0 0 0 0 0 19 17 0 0 0 0 0 0 14 0 0 0 0 0 0 0 0 0 0 
		24 0 0 0 0 0 0 0 0 0 0 0 0 0 0 0 0 0 0 0 0 0 0 0 0 0 0 0 0 0 0 0 0 0 0 10 0 0 0 0 0 0 0 0 0 0 
		25 0 0 0 0 0 0 0 0 0 0 0 0 0 0 0 0 0 0 0 0 0 0 0 0 0 0 0 0 0 0 0 20 0 0 0 16 0 0 0 0 0 0 0 0 0 
		26 0 0 0 0 0 0 0 0 0 0 0 0 0 0 0 0 0 0 0 0 0 0 0 0 0 0 0 0 0 0 0 0 0 24 0 0 0 0 0 0 0 0 0 0 22 
		27 0 0 0 0 0 0 0 0 0 0 0 0 0 0 0 0 0 0 0 0 0 0 0 0 0 0 0 0 0 12 24 0 0 0 0 0 16 0 0 0 0 0 0 0 0 
		28 0 0 0 0 0 0 0 0 0 0 0 0 0 0 0 0 0 0 0 0 0 0 0 0 0 0 0 0 0 0 0 0 0 0 0 0 0 0 0 0 0 0 0 11 0 
		29 0 0 0 0 0 0 0 0 0 0 0 0 0 0 0 0 0 0 0 0 0 0 0 0 0 0 0 0 0 0 0 0 0 0 0 0 0 0 0 0 0 0 0 0 0 
		30 0 0 0 0 0 0 0 0 0 0 0 0 0 0 0 0 0 0 0 0 0 0 0 0 0 0 0 0 0 0 0 20 0 0 0 20 0 0 0 0 0 0 15 0 0 
		31 0 0 0 0 0 0 0 0 0 0 0 0 0 0 0 0 0 0 0 0 0 0 0 0 0 0 0 0 0 0 0 0 0 0 0 0 0 0 0 0 0 0 0 0 0 
		32 0 0 0 0 0 0 0 0 0 0 0 0 0 0 0 0 0 0 0 0 0 0 0 0 0 0 0 0 0 0 0 0 0 0 0 0 0 0 0 0 0 0 0 0 0 
		33 0 0 0 0 0 0 0 0 0 0 0 0 0 0 0 0 0 0 0 0 0 0 0 0 0 0 0 0 0 0 0 0 0 0 24 0 0 0 14 0 0 0 25 0 0 
		34 0 0 0 0 0 0 0 0 0 0 0 0 0 0 0 0 0 0 0 0 0 0 0 0 0 0 0 0 0 0 0 0 0 0 0 0 0 0 13 10 0 0 0 0 0 
		35 0 0 0 0 0 0 0 0 0 0 0 0 0 0 0 0 0 0 0 0 0 0 0 0 0 0 0 0 0 0 0 0 0 0 0 0 0 0 0 0 0 19 0 0 0 
		36 0 0 0 0 0 0 0 0 0 0 0 0 0 0 0 0 0 0 0 0 0 0 0 0 0 0 0 0 0 0 0 0 0 0 0 0 0 0 0 19 0 0 0 0 25 
		37 0 0 0 0 0 0 0 0 0 0 0 0 0 0 0 0 0 0 0 0 0 0 0 0 0 0 0 0 0 0 0 0 0 0 0 0 0 0 0 0 0 20 0 18 0 
		38 0 0 0 0 0 0 0 0 0 0 0 0 0 0 0 0 0 0 0 0 0 0 0 0 0 0 0 0 0 0 0 0 0 0 0 0 0 0 0 0 0 0 0 0 0 
		39 0 0 0 0 0 0 0 0 0 0 0 0 0 0 0 0 0 0 0 0 0 0 0 0 0 0 0 0 0 0 0 0 0 0 0 0 0 0 0 0 0 21 0 0 0 
		40 0 0 0 0 0 0 0 0 0 0 0 0 0 0 0 0 0 0 0 0 0 0 0 0 0 0 0 0 0 0 0 0 0 0 0 0 0 0 0 0 0 10 0 0 0 
		41 0 0 0 0 0 0 0 0 0 0 0 0 0 0 0 0 0 0 0 0 0 0 0 0 0 0 0 0 0 0 0 0 0 0 0 0 0 0 0 0 0 0 24 0 0 
		42 0 0 0 0 0 0 0 0 0 0 0 0 0 0 0 0 0 0 0 0 0 0 0 0 0 0 0 0 0 0 0 0 0 0 0 0 0 0 0 0 0 0 0 0 0 
		43 0 0 0 0 0 0 0 0 0 0 0 0 0 0 0 0 0 0 0 0 0 0 0 0 0 0 0 0 0 0 0 0 0 0 0 0 0 0 0 0 0 0 0 0 0 
		44 0 0 0 0 0 0 0 0 0 0 0 0 0 0 0 0 0 0 0 0 0 0 0 0 0 0 0 0 0 0 0 0 0 0 0 0 0 0 0 0 0 0 0 0 0 
;
param bs:	 0 1 2 3 4 5 6 7 8 9 10 11 12 13 14 15 16 17 18 19 20 21 22 23 24 25 26 27 28 29 30 31 32 33 34 35 36 37 38 39 40 41 42 43 44 45 46 47 48 49 50 51 52 53 54 55 56 57 58 59 60 61 62 63 64 65 66 67 68 69 70 71 72 73 74 75 76 77 78 79 80 81 82 83 84 85 86 87 88 89 90 91 92 93 := 
		0 0 0 26 0 0 0 0 0 0 26 0 0 0 0 0 0 0 0 40 38 0 0 0 0 0 0 0 0 0 0 0 0 0 0 0 0 22 0 0 0 0 0 0 0 0 40 0 0 0 0 0 0 0 0 0 0 0 0 32 0 0 23 0 0 0 0 0 30 0 25 0 35 0 0 0 0 0 0 0 0 0 0 33 23 0 0 0 0 0 0 0 0 0 0 
		1 0 0 0 30 0 0 0 0 0 0 0 0 0 0 0 0 0 0 0 0 0 0 0 0 0 0 0 0 0 0 29 0 0 0 0 0 0 0 0 0 39 0 25 28 0 0 0 0 0 0 0 0 0 0 0 0 0 0 0 0 40 0 0 21 0 0 0 0 0 0 0 0 0 0 0 0 0 0 0 0 0 0 0 31 0 37 0 0 0 0 0 0 38 0 
		2 26 0 0 0 0 0 0 38 0 0 0 0 0 0 0 0 0 0 0 0 0 35 0 0 0 0 0 35 0 0 0 0 0 0 0 0 29 0 0 0 0 0 0 31 0 0 0 0 0 0 0 36 0 0 0 0 0 0 0 23 0 0 0 0 0 0 0 0 0 0 0 0 0 0 0 0 0 0 37 0 0 0 0 0 0 38 0 0 26 0 0 0 28 0 
		3 0 30 0 0 0 0 0 0 0 0 0 0 0 0 0 0 0 0 0 0 25 0 0 0 0 0 0 0 0 0 35 0 0 0 0 0 0 23 0 0 0 0 0 0 0 0 0 22 0 0 0 0 0 0 0 0 0 0 0 0 0 0 0 0 0 0 0 0 0 0 0 0 0 0 0 0 0 0 0 0 0 0 0 0 0 20 0 0 0 0 0 0 0 0 
		4 0 0 0 0 0 0 0 0 0 0 0 0 0 0 0 0 40 0 23 0 0 0 0 0 0 0 0 0 0 0 0 38 27 36 0 0 0 0 29 33 0 0 21 0 27 0 0 0 0 0 0 0 0 0 0 0 0 0 0 0 26 0 37 0 0 0 21 0 0 0 0 0 0 0 0 35 0 0 0 0 0 0 0 31 0 0 0 32 0 25 0 0 0 20 
		5 0 0 0 0 0 0 0 0 0 0 0 0 0 25 33 29 0 0 0 0 0 0 0 0 0 0 0 0 0 33 0 0 0 0 0 0 0 0 0 0 26 0 0 0 0 0 0 0 0 0 0 0 0 26 0 0 0 0 0 25 0 0 0 0 0 0 0 0 0 0 0 0 0 27 0 0 0 0 0 0 0 0 0 0 0 26 0 0 0 0 0 0 0 0 
		6 0 0 0 0 0 0 0 0 0 0 0 0 23 0 0 38 0 0 0 0 0 0 0 31 0 0 0 0 31 0 0 33 0 0 0 0 0 0 0 0 0 0 0 31 0 0 0 0 0 0 0 0 0 0 31 0 0 0 0 0 39 0 36 0 0 0 0 0 0 0 0 0 0 0 0 0 0 0 0 25 0 0 0 0 0 0 0 0 0 0 0 0 0 20 
		7 0 0 38 0 0 0 0 0 33 0 0 0 0 0 36 0 0 0 0 0 0 29 0 0 0 0 20 0 0 0 0 0 0 0 31 0 0 0 0 21 0 23 0 0 0 0 39 0 0 0 30 0 0 0 0 0 0 0 0 31 0 0 0 0 29 0 0 0 0 0 0 0 0 0 0 0 0 0 0 0 0 0 0 39 0 0 21 0 0 0 0 0 0 0 
		8 0 0 0 0 0 0 0 33 0 0 0 0 0 0 0 0 0 36 0 0 0 0 0 0 0 0 0 0 39 0 0 0 0 0 0 0 0 0 0 0 0 0 0 24 0 0 0 0 0 0 0 0 0 0 0 0 0 0 0 0 0 0 29 0 0 0 0 0 0 40 0 0 0 28 0 0 0 0 0 0 0 0 0 0 0 0 0 33 29 0 0 0 0 0 
		9 26 0 0 0 0 0 0 0 0 0 0 21 0 0 0 0 0 0 0 0 0 0 0 0 0 0 0 0 0 0 0 0 0 0 0 0 0 0 0 0 0 0 0 0 0 0 0 0 0 0 0 0 0 0 0 37 0 0 0 0 0 0 0 0 0 0 0 0 0 0 0 0 0 0 0 0 0 0 0 0 0 0 22 0 0 0 0 0 39 0 0 0 0 36 
		10 0 0 0 0 0 0 0 0 0 0 0 0 0 21 0 0 0 0 0 0 0 0 25 0 0 0 0 24 0 0 0 0 0 0 0 0 0 0 30 0 0 0 0 0 0 0 0 39 0 0 0 0 0 0 0 0 0 0 0 0 27 0 0 0 0 0 0 0 0 0 0 0 0 0 0 0 0 0 0 0 0 0 0 22 0 0 0 0 0 0 0 0 0 0 
		11 0 0 0 0 0 0 0 0 0 21 0 0 0 0 0 20 0 0 0 0 0 0 0 0 0 0 0 0 34 0 38 0 0 29 0 0 0 0 0 0 36 0 0 0 0 0 35 0 0 0 0 27 0 0 0 0 0 0 0 0 0 0 0 0 0 0 0 0 0 0 0 0 0 0 0 0 0 0 0 0 0 0 0 0 0 0 0 0 0 0 0 0 0 0 
		12 0 0 0 0 0 0 23 0 0 0 0 0 0 34 0 0 0 0 0 0 25 32 0 0 0 25 0 40 0 0 0 0 0 0 0 0 0 0 0 0 0 0 0 34 0 0 0 0 0 0 0 0 0 0 0 0 27 0 20 0 0 0 0 0 0 0 0 0 0 0 0 0 21 0 0 0 0 0 0 0 0 0 0 0 0 0 0 0 0 0 0 39 0 0 
		13 0 0 0 0 0 25 0 0 0 0 21 0 34 0 0 0 0 0 0 0 0 0 0 0 0 0 0 0 0 0 0 0 0 0 0 0 0 0 0 0 0 0 0 0 23 0 32 0 33 0 0 0 0 0 0 0 0 0 0 0 0 0 38 0 0 0 0 0 0 0 0 33 0 0 0 0 0 0 32 0 0 0 0 0 0 0 0 0 0 0 0 26 0 0 
		14 0 0 0 0 0 33 0 36 0 0 0 0 0 0 0 0 0 0 0 0 0 0 0 0 40 30 40 0 0 0 0 0 0 0 0 0 0 0 0 0 30 0 0 0 0 0 0 0 0 0 0 0 32 0 0 0 0 0 0 0 0 31 0 27 0 0 29 0 0 0 0 0 0 0 0 39 0 0 0 0 0 0 0 0 0 27 0 0 0 0 0 0 34 0 
		15 0 0 0 0 0 29 38 0 0 0 0 20 0 0 0 0 23 0 0 0 0 0 0 23 0 0 0 35 0 0 0 0 0 0 0 0 0 0 0 0 0 0 0 22 0 0 0 0 0 0 0 0 0 0 33 0 0 0 0 0 0 0 0 0 0 0 40 0 0 0 0 0 0 24 0 0 0 0 0 35 0 0 0 0 0 34 0 0 0 23 0 0 21 39 
		16 0 0 0 0 40 0 0 0 0 0 0 0 0 0 0 23 0 0 33 0 0 0 0 0 0 0 0 0 35 0 0 0 27 0 0 0 0 0 0 24 0 0 22 0 0 26 0 0 0 0 23 25 0 0 0 0 0 0 0 0 0 0 0 0 0 0 29 0 0 0 0 0 0 0 0 0 34 0 0 0 36 32 0 0 0 0 0 0 0 0 0 0 0 0 
		17 0 0 0 0 0 0 0 0 36 0 0 0 0 0 0 0 0 0 20 0 0 0 0 0 0 0 0 0 0 0 0 31 0 0 0 0 0 0 0 0 0 0 0 0 0 0 0 0 0 0 0 36 0 0 0 0 0 0 0 0 0 21 0 0 0 34 0 0 0 0 0 33 0 0 0 0 0 0 0 0 0 0 0 0 0 27 23 0 0 0 0 0 0 0 
		18 40 0 0 0 23 0 0 0 0 0 0 0 0 0 0 0 33 20 0 0 0 0 0 0 0 0 0 0 0 0 0 0 0 0 0 0 0 0 0 35 0 0 30 0 39 33 33 0 0 0 0 0 0 0 0 39 0 0 0 0 0 0 0 0 32 0 0 0 31 0 0 0 0 0 0 0 30 0 0 32 0 0 31 0 0 0 0 0 0 0 0 0 0 38 
		19 38 0 0 0 0 0 0 0 0 0 0 0 0 0 0 0 0 0 0 0 27 0 0 0 0 0 0 0 0 0 23 0 0 32 39 0 0 0 0 20 0 0 0 0 0 0 0 0 0 0 0 0 0 0 0 28 36 0 0 0 0 0 0 0 0 0 29 0 0 0 0 0 0 0 0 0 0 0 0 0 0 0 0 0 0 0 0 0 0 0 0 0 0 0 
		20 0 0 0 25 0 0 0 0 0 0 0 0 25 0 0 0 0 0 0 27 0 0 0 0 0 34 0 0 0 0 0 0 0 0 0 0 0 0 0 0 0 0 0 0 0 0 0 0 0 0 0 23 0 0 0 0 36 0 0 0 26 28 0 0 0 0 0 0 0 0 0 0 0 0 0 0 0 0 0 21 0 0 0 0 0 0 0 0 0 0 0 0 0 0 
		21 0 0 35 0 0 0 0 29 0 0 0 0 32 0 0 0 0 0 0 0 0 0 0 0 0 0 0 0 0 0 0 25 0 0 0 0 0 0 0 0 0 0 0 0 0 0 0 0 0 0 0 0 0 35 0 0 0 0 36 0 0 0 0 0 0 0 0 0 0 0 0 0 0 0 25 0 0 0 0 0 0 0 0 0 0 0 0 0 0 0 0 0 0 0 
		22 0 0 0 0 0 0 0 0 0 0 25 0 0 0 0 0 0 0 0 0 0 0 0 0 0 0 0 21 0 0 21 0 0 0 0 0 0 0 37 0 0 0 0 22 0 0 0 0 0 0 0 0 0 0 0 0 0 0 0 0 28 0 0 0 0 0 0 0 24 0 0 0 0 0 0 0 0 0 0 0 23 0 25 0 0 0 0 0 0 0 0 0 0 0 
		23 0 0 0 0 0 0 31 0 0 0 0 0 0 0 0 23 0 0 0 0 0 0 0 0 0 0 0 0 25 22 37 0 0 0 0 0 0 0 33 0 27 0 0 0 0 39 0 0 24 0 0 0 0 0 0 0 0 0 0 0 0 0 0 29 0 0 37 0 0 0 0 0 34 0 31 0 0 0 0 0 0 36 0 0 34 0 0 0 0 0 0 0 0 0 
		24 0 0 0 0 0 0 0 0 0 0 0 0 0 0 40 0 0 0 0 0 0 0 0 0 0 0 0 0 0 0 0 0 0 0 0 0 0 0 0 34 0 0 0 0 0 27 0 0 0 0 0 0 0 0 0 0 0 0 0 0 0 0 0 0 0 0 0 0 0 0 0 0 23 0 0 0 0 0 0 31 0 0 0 0 0 37 0 0 0 0 0 0 29 0 
		25 0 0 0 0 0 0 0 0 0 0 0 0 25 0 30 0 0 0 0 0 34 0 0 0 0 0 0 0 0 0 0 35 0 0 0 0 0 0 0 0 21 22 0 0 0 0 31 0 0 0 0 40 0 0 30 39 0 0 27 0 0 0 0 0 29 0 29 0 0 0 0 38 0 0 0 0 0 22 0 0 20 0 0 0 0 0 0 0 0 0 26 0 0 0 
		26 0 0 0 0 0 0 0 20 0 0 0 0 0 0 40 0 0 0 0 0 0 0 0 0 0 0 0 0 36 0 0 0 0 0 0 0 0 0 0 0 0 0 0 0 0 0 0 0 0 0 20 0 0 0 0 0 0 0 0 0 0 0 0 0 31 0 0 0 0 0 0 0 0 0 0 0 0 0 0 0 0 0 36 0 0 0 0 25 27 0 0 0 0 0 
		27 0 0 35 0 0 0 0 0 0 0 24 0 40 0 0 35 0 0 0 0 0 0 21 0 0 0 0 0 0 0 35 0 26 0 0 0 0 0 0 0 0 0 0 25 0 0 0 0 39 0 0 0 0 0 0 0 0 0 0 0 0 0 0 0 35 0 22 0 24 0 0 0 0 0 0 0 0 0 0 0 0 0 0 0 0 0 24 0 0 0 0 0 0 0 
		28 0 0 0 0 0 0 31 0 39 0 0 34 0 0 0 0 35 0 0 0 0 0 0 25 0 0 36 0 0 0 0 0 0 0 34 0 0 0 0 0 0 0 39 0 0 0 0 0 0 0 0 0 0 0 0 0 0 0 0 0 0 0 0 33 0 0 0 0 0 0 0 0 0 0 0 0 40 0 0 0 0 37 0 0 0 0 0 0 0 0 0 0 20 0 
		29 0 0 0 0 0 33 0 0 0 0 0 0 0 0 0 0 0 0 0 0 0 0 0 22 0 0 0 0 0 0 0 0 0 0 0 0 0 0 0 21 0 0 0 39 0 0 34 0 0 0 0 0 0 0 0 0 0 0 0 0 0 0 0 0 0 0 0 0 0 0 0 0 0 0 28 0 0 0 0 0 0 0 0 0 0 0 0 0 0 0 0 0 0 0 
		30 0 29 0 35 0 0 0 0 0 0 0 38 0 0 0 0 0 0 0 23 0 0 21 37 0 0 0 35 0 0 0 0 0 0 0 0 0 0 36 0 0 0 0 0 0 0 0 0 0 0 0 0 0 0 0 0 0 0 0 0 0 0 0 0 0 0 0 0 0 0 0 0 0 34 0 0 0 0 0 0 0 0 0 0 0 0 0 0 0 26 0 0 0 0 
		31 0 0 0 0 38 0 33 0 0 0 0 0 0 0 0 0 0 31 0 0 0 25 0 0 0 35 0 0 0 0 0 0 0 0 0 0 0 0 0 0 0 0 0 0 0 36 0 0 0 0 0 26 0 0 30 36 0 0 0 0 0 25 0 0 0 0 0 0 0 0 0 30 0 0 0 0 0 0 0 36 0 0 0 0 35 0 0 0 0 0 33 0 0 0 
		32 0 0 0 0 27 0 0 0 0 0 0 0 0 0 0 0 27 0 0 0 0 0 0 0 0 0 0 26 0 0 0 0 0 0 32 22 0 0 38 35 0 0 0 0 0 0 0 0 0 0 0 0 0 0 39 0 0 25 0 0 0 0 0 0 0 0 0 0 0 0 0 0 0 0 0 38 0 0 0 0 0 40 0 0 0 0 0 0 0 0 0 0 0 0 
		33 0 0 0 0 36 0 0 0 0 0 0 29 0 0 0 0 0 0 0 32 0 0 0 0 0 0 0 0 0 0 0 0 0 0 0 0 0 0 0 32 0 0 0 0 0 0 0 30 0 0 0 0 30 0 0 0 0 0 0 0 23 0 0 0 0 0 29 0 0 0 0 0 0 0 22 0 39 0 0 0 0 28 0 0 0 0 0 0 0 0 0 0 0 0 
		34 0 0 0 0 0 0 0 31 0 0 0 0 0 0 0 0 0 0 0 39 0 0 0 0 0 0 0 0 34 0 0 0 32 0 0 0 29 0 0 0 0 0 0 0 0 0 0 0 0 0 0 0 0 0 0 0 0 0 0 0 0 0 0 40 0 30 0 0 0 0 0 0 0 0 0 0 0 0 0 0 0 0 0 0 0 0 0 0 0 0 0 0 0 0 
		35 0 0 0 0 0 0 0 0 0 0 0 0 0 0 0 0 0 0 0 0 0 0 0 0 0 0 0 0 0 0 0 0 22 0 0 0 0 0 0 24 0 0 0 0 0 0 0 0 0 0 0 0 0 0 0 0 0 0 0 0 0 0 0 0 0 0 0 0 0 0 0 0 0 34 0 0 36 0 0 0 0 0 0 0 0 0 0 0 0 0 0 0 0 0 
		36 22 0 29 0 0 0 0 0 0 0 0 0 0 0 0 0 0 0 0 0 0 0 0 0 0 0 0 0 0 0 0 0 0 0 29 0 0 0 0 0 0 0 0 0 0 0 0 0 0 0 0 40 0 0 0 33 0 0 0 0 0 39 0 0 37 0 0 0 0 35 0 0 0 0 0 0 0 0 0 0 0 0 23 0 0 0 0 0 0 0 0 0 0 0 
		37 0 0 0 23 0 0 0 0 0 0 0 0 0 0 0 0 0 0 0 0 0 0 0 0 0 0 0 0 0 0 0 0 0 0 0 0 0 0 0 0 0 0 0 0 36 0 0 0 31 0 0 0 0 0 0 0 0 0 0 0 27 0 31 0 0 0 0 0 0 0 0 0 0 0 0 0 0 31 0 20 0 0 25 0 0 0 0 0 0 0 0 0 0 0 
		38 0 0 0 0 29 0 0 0 0 0 30 0 0 0 0 0 0 0 0 0 0 0 37 33 0 0 0 0 0 0 36 0 38 0 0 0 0 0 0 0 0 0 34 0 0 0 0 0 0 38 0 0 0 0 0 0 0 0 0 0 0 0 37 0 0 0 0 0 0 22 0 0 0 0 0 37 0 31 0 33 0 0 0 39 0 0 0 0 0 0 0 0 0 0 
		39 0 0 0 0 33 0 0 21 0 0 0 0 0 0 0 0 24 0 35 20 0 0 0 0 34 0 0 0 0 21 0 0 35 32 0 24 0 0 0 0 0 0 0 39 0 0 0 0 0 0 20 0 0 0 0 27 0 0 0 39 0 0 0 0 0 0 25 0 0 0 0 0 0 0 0 26 0 0 0 0 0 34 0 0 0 0 0 0 0 0 0 0 0 0 
		40 0 39 0 0 0 26 0 0 0 0 0 36 0 0 30 0 0 0 0 0 0 0 0 27 0 21 0 0 0 0 0 0 0 0 0 0 0 0 0 0 0 0 0 37 0 0 0 0 20 0 26 0 0 0 0 0 0 0 0 0 0 0 0 0 0 0 0 0 0 0 0 0 0 20 0 0 0 0 0 0 0 0 0 0 0 0 0 0 0 0 0 0 0 0 
		41 0 0 0 0 0 0 0 23 0 0 0 0 0 0 0 0 0 0 0 0 0 0 0 0 0 22 0 0 0 0 0 0 0 0 0 0 0 0 0 0 0 0 0 0 0 0 0 0 0 0 30 0 0 0 0 0 0 0 0 0 0 0 0 0 0 0 0 0 0 0 0 0 0 0 0 0 20 0 24 0 0 0 0 0 0 0 0 0 0 30 0 0 0 0 
		42 0 25 0 0 21 0 0 0 0 0 0 0 0 0 0 0 22 0 30 0 0 0 0 0 0 0 0 0 39 0 0 0 0 0 0 0 0 0 34 0 0 0 0 0 0 0 0 0 0 0 0 0 0 0 0 0 0 0 0 0 0 0 23 0 0 0 0 0 0 0 0 0 0 28 0 21 0 0 0 32 0 0 0 0 0 0 0 0 0 0 36 0 0 0 
		43 0 28 31 0 0 0 31 0 24 0 0 0 34 0 0 22 0 0 0 0 0 0 22 0 0 0 0 25 0 39 0 0 0 0 0 0 0 0 0 39 37 0 0 0 0 40 0 0 0 0 0 31 0 0 0 0 0 40 0 0 0 0 0 38 40 0 25 0 0 0 0 0 0 0 0 0 0 0 0 0 0 0 0 26 0 21 0 0 0 0 0 0 23 0 
		44 0 0 0 0 27 0 0 0 0 0 0 0 0 23 0 0 0 0 39 0 0 0 0 0 0 0 0 0 0 0 0 0 0 0 0 0 0 36 0 0 0 0 0 0 0 0 0 21 0 0 0 0 0 0 0 0 0 0 0 0 0 0 0 32 0 0 0 0 0 29 0 0 0 0 0 0 0 0 0 0 40 0 0 0 0 0 38 0 0 0 0 0 0 0 
		45 40 0 0 0 0 0 0 0 0 0 0 0 0 0 0 0 26 0 33 0 0 0 0 39 27 0 0 0 0 0 0 36 0 0 0 0 0 0 0 0 0 0 0 40 0 0 0 0 0 0 32 0 0 0 0 0 38 21 0 0 0 0 0 0 0 0 33 0 0 0 0 0 34 23 0 0 0 0 0 0 0 0 0 0 0 0 0 0 0 32 0 0 0 0 
		46 0 0 0 0 0 0 0 39 0 0 0 35 0 32 0 0 0 0 33 0 0 0 0 0 0 31 0 0 0 34 0 0 0 0 0 0 0 0 0 0 0 0 0 0 0 0 0 0 0 34 0 0 0 0 0 0 0 0 0 0 0 0 0 0 0 0 0 0 0 0 0 0 0 0 0 0 0 0 0 0 0 0 40 36 0 0 0 0 0 0 0 0 0 0 
		47 0 0 0 22 0 0 0 0 0 0 39 0 0 0 0 0 0 0 0 0 0 0 0 0 0 0 0 0 0 0 0 0 0 30 0 0 0 0 0 0 0 0 0 0 21 0 0 0 0 0 0 0 0 0 0 0 0 0 0 0 0 0 0 0 0 0 0 0 0 0 0 0 0 0 21 0 0 0 0 0 29 0 0 0 30 0 0 0 0 0 0 0 0 0 
		48 0 0 0 0 0 0 0 0 0 0 0 0 0 33 0 0 0 0 0 0 0 0 0 24 0 0 0 39 0 0 0 0 0 0 0 0 0 31 0 0 20 0 0 0 0 0 0 0 0 0 0 0 0 0 0 0 0 0 0 0 0 27 0 0 0 0 0 0 0 0 0 26 0 0 0 0 0 0 0 0 0 0 0 0 0 0 0 0 0 0 0 0 0 21 
		49 0 0 0 0 0 0 0 0 0 0 0 0 0 0 0 0 0 0 0 0 0 0 0 0 0 0 0 0 0 0 0 0 0 0 0 0 0 0 38 0 0 0 0 0 0 0 34 0 0 0 0 0 0 0 0 0 0 0 0 0 0 0 0 0 0 0 0 0 0 29 0 0 0 0 0 0 0 0 0 0 0 38 0 0 0 0 0 0 0 0 0 0 0 0 
		50 0 0 0 0 0 0 0 30 0 0 0 0 0 0 0 0 23 0 0 0 0 0 0 0 0 0 20 0 0 0 0 0 0 0 0 0 0 0 0 20 26 30 0 0 0 32 0 0 0 0 0 0 0 0 0 0 0 0 0 0 0 0 0 0 0 0 0 0 0 0 0 0 0 0 0 0 27 0 0 0 0 0 0 0 0 0 0 0 0 0 0 0 37 0 
		51 0 0 36 0 0 0 0 0 0 0 0 27 0 0 0 0 25 36 0 0 23 0 0 0 0 40 0 0 0 0 0 26 0 0 0 0 40 0 0 0 0 0 0 31 0 0 0 0 0 0 0 0 0 0 0 0 0 0 0 33 0 39 0 0 20 0 0 24 0 21 0 25 0 35 0 0 0 0 0 21 0 0 23 0 0 0 0 0 0 0 0 0 0 0 
		52 0 0 0 0 0 0 0 0 0 0 0 0 0 0 32 0 0 0 0 0 0 0 0 0 0 0 0 0 0 0 0 0 0 30 0 0 0 0 0 0 0 0 0 0 0 0 0 0 0 0 0 0 0 0 0 0 0 26 0 0 0 0 0 0 0 0 0 0 0 0 0 0 0 0 0 0 0 0 0 0 0 0 0 0 0 0 0 0 0 0 0 0 0 0 
		53 0 0 0 0 0 26 0 0 0 0 0 0 0 0 0 0 0 0 0 0 0 35 0 0 0 0 0 0 0 0 0 0 0 0 0 0 0 0 0 0 0 0 0 0 0 0 0 0 0 0 0 0 0 0 0 0 0 0 0 0 0 0 0 0 0 0 0 0 0 0 23 37 0 0 0 0 0 0 0 38 0 0 33 0 0 0 0 0 0 0 0 0 0 0 
		54 0 0 0 0 0 0 31 0 0 0 0 0 0 0 0 33 0 0 0 0 0 0 0 0 0 30 0 0 0 0 0 30 39 0 0 0 0 0 0 0 0 0 0 0 0 0 0 0 0 0 0 0 0 0 0 0 0 0 0 0 0 0 0 0 0 0 0 29 22 0 0 0 0 0 0 0 0 0 0 0 0 22 0 23 0 0 0 0 0 0 0 0 0 0 
		55 0 0 0 0 0 0 0 0 0 37 0 0 0 0 0 0 0 0 39 28 0 0 0 0 0 39 0 0 0 0 0 36 0 0 0 0 33 0 0 27 0 0 0 0 0 0 0 0 0 0 0 0 0 0 0 0 0 0 0 0 0 0 0 0 0 0 0 26 0 0 0 0 0 0 0 0 0 0 0 0 0 0 0 0 0 0 0 0 0 0 29 0 0 0 
		56 0 0 0 0 0 0 0 0 0 0 0 0 27 0 0 0 0 0 0 36 36 0 0 0 0 0 0 0 0 0 0 0 0 0 0 0 0 0 0 0 0 0 0 0 0 38 0 0 0 0 0 0 0 0 0 0 0 0 0 0 0 0 0 0 0 0 0 0 0 21 0 20 0 0 0 0 0 0 36 0 0 0 0 0 0 0 0 0 0 0 0 0 0 0 
		57 0 0 0 0 0 0 0 0 0 0 0 0 0 0 0 0 0 0 0 0 0 0 0 0 0 0 0 0 0 0 0 0 25 0 0 0 0 0 0 0 0 0 0 40 0 21 0 0 0 0 0 0 26 0 0 0 0 0 0 0 0 0 0 0 21 0 35 0 34 0 0 0 31 0 0 0 28 0 0 40 0 0 0 39 0 27 0 0 0 0 31 0 0 0 
		58 32 0 0 0 0 0 0 0 0 0 0 0 20 0 0 0 0 0 0 0 0 36 0 0 0 27 0 0 0 0 0 0 0 0 0 0 0 0 0 0 0 0 0 0 0 0 0 0 0 0 0 0 0 0 0 0 0 0 0 0 0 0 0 0 0 0 0 0 0 0 35 0 0 0 0 0 0 0 0 23 0 0 0 0 23 0 26 0 0 0 0 26 0 0 
		59 0 0 23 0 0 25 0 31 0 0 0 0 0 0 0 0 0 0 0 0 0 0 0 0 0 0 0 0 0 0 0 0 0 0 0 0 0 0 0 39 0 0 0 0 0 0 0 0 0 0 0 33 0 0 0 0 0 0 0 0 0 0 0 0 0 0 0 0 0 0 0 0 0 0 0 0 0 0 0 0 0 0 0 0 0 0 0 0 0 0 0 0 0 0 
		60 0 40 0 0 26 0 39 0 0 0 27 0 0 0 0 0 0 0 0 0 26 0 28 0 0 0 0 0 0 0 0 0 0 23 0 0 0 27 0 0 0 0 0 0 0 0 0 0 0 0 0 0 0 0 0 0 0 0 0 0 0 31 0 0 0 0 0 0 0 0 0 0 0 0 0 0 0 0 0 0 0 34 0 0 0 0 0 0 0 0 0 0 0 0 
		61 23 0 0 0 0 0 0 0 0 0 0 0 0 0 31 0 0 21 0 0 28 0 0 0 0 0 0 0 0 0 0 25 0 0 0 0 39 0 0 0 0 0 0 0 0 0 0 0 27 0 0 39 0 0 0 0 0 0 0 0 31 0 0 0 0 0 0 0 0 0 33 32 0 0 40 0 0 0 0 0 0 0 0 0 0 0 0 31 0 0 0 0 0 0 
		62 0 0 0 0 37 0 36 0 29 0 0 0 0 38 0 0 0 0 0 0 0 0 0 0 0 0 0 0 0 0 0 0 0 0 0 0 0 31 37 0 0 0 23 0 0 0 0 0 0 0 0 0 0 0 0 0 0 0 0 0 0 0 0 0 0 0 0 0 0 0 0 0 0 0 22 0 0 0 0 0 0 28 0 24 0 0 0 0 0 0 0 0 0 0 
		63 0 21 0 0 0 0 0 0 0 0 0 0 0 0 27 0 0 0 0 0 0 0 0 29 0 0 0 0 33 0 0 0 0 0 40 0 0 0 0 0 0 0 0 38 32 0 0 0 0 0 0 0 0 0 0 0 0 0 0 0 0 0 0 0 0 0 0 0 0 0 0 0 0 35 0 0 0 0 0 0 0 0 0 0 0 0 0 0 0 0 0 0 0 0 
		64 0 0 0 0 0 0 0 29 0 0 0 0 0 0 0 0 0 0 32 0 0 0 0 0 0 29 31 35 0 0 0 0 0 0 0 0 37 0 0 0 0 0 0 40 0 0 0 0 0 0 0 20 0 0 0 0 0 21 0 0 0 0 0 0 0 0 34 0 0 0 24 0 0 34 0 0 20 0 0 0 21 0 0 0 0 26 35 0 0 0 37 0 0 0 
		65 0 0 0 0 0 0 0 0 0 0 0 0 0 0 0 0 0 34 0 0 0 0 0 0 0 0 0 0 0 0 0 0 0 0 30 0 0 0 0 0 0 0 0 0 0 0 0 0 0 0 0 0 0 0 0 0 0 0 0 0 0 0 0 0 0 0 0 0 22 0 36 0 0 0 0 0 0 0 0 0 0 0 0 0 0 0 0 0 0 0 0 35 0 0 
		66 0 0 0 0 21 0 0 0 0 0 0 0 0 0 29 40 29 0 0 29 0 0 0 37 0 29 0 22 0 0 0 0 0 29 0 0 0 0 0 25 0 0 0 25 0 33 0 0 0 0 0 0 0 0 0 0 0 35 0 0 0 0 0 0 34 0 0 0 27 0 0 0 0 0 0 0 0 0 0 0 0 0 0 0 0 0 0 0 0 0 0 29 0 0 
		67 30 0 0 0 0 0 0 0 0 0 0 0 0 0 0 0 0 0 0 0 0 0 0 0 0 0 0 0 0 0 0 0 0 0 0 0 0 0 0 0 0 0 0 0 0 0 0 0 0 0 0 24 0 0 29 26 0 0 0 0 0 0 0 0 0 0 0 0 0 0 0 0 0 0 25 0 0 23 0 0 0 0 0 0 20 0 33 0 0 0 0 37 0 0 
		68 0 0 0 0 0 0 0 0 0 0 0 0 0 0 0 0 0 0 31 0 0 0 24 0 0 0 0 24 0 0 0 0 0 0 0 0 0 0 0 0 0 0 0 0 0 0 0 0 0 0 0 0 0 0 22 0 0 34 0 0 0 0 0 0 0 22 27 0 0 0 0 0 0 0 0 0 0 0 0 0 40 0 0 0 0 0 0 0 0 0 0 0 0 0 
		69 25 0 0 0 0 0 0 0 40 0 0 0 0 0 0 0 0 0 0 0 0 0 0 0 0 0 0 0 0 0 0 0 0 0 0 0 35 0 22 0 0 0 0 0 29 0 0 0 0 29 0 21 0 0 0 0 21 0 0 0 0 0 0 0 0 0 0 0 0 0 30 0 0 0 0 0 0 0 0 0 0 0 0 0 26 0 0 0 0 0 0 24 0 0 
		70 0 0 0 0 0 0 0 0 0 0 0 0 0 0 0 0 0 0 0 0 0 0 0 0 0 0 0 0 0 0 0 0 0 0 0 0 0 0 0 0 0 0 0 0 0 0 0 0 0 0 0 0 0 23 0 0 0 0 35 0 0 33 0 0 24 36 0 0 0 30 0 0 0 0 28 0 0 0 0 0 0 0 0 0 22 0 30 0 0 0 0 31 0 0 
		71 35 0 0 0 0 0 0 0 0 0 0 0 0 33 0 0 0 33 0 0 0 0 0 0 0 38 0 0 0 0 0 30 0 0 0 0 0 0 0 0 0 0 0 0 0 0 0 0 26 0 0 25 0 37 0 0 20 0 0 0 0 32 0 0 0 0 0 0 0 0 0 0 0 0 0 0 0 0 0 0 0 0 0 0 39 0 0 21 0 0 0 0 0 0 
		72 0 0 0 0 0 0 0 0 0 0 0 0 21 0 0 0 0 0 0 0 0 0 0 34 23 0 0 0 0 0 0 0 0 0 0 0 0 0 0 0 0 0 0 0 0 34 0 0 0 0 0 0 0 0 0 0 0 31 0 0 0 0 0 0 0 0 0 0 0 0 0 0 0 0 0 0 21 0 0 0 0 0 0 39 0 0 0 35 0 0 0 0 0 0 
		73 0 0 0 0 0 27 0 0 28 0 0 0 0 0 0 24 0 0 0 0 0 0 0 0 0 0 0 0 0 0 34 0 0 0 0 34 0 0 0 0 20 0 28 0 0 23 0 0 0 0 0 35 0 0 0 0 0 0 0 0 0 0 0 35 34 0 0 0 0 0 0 0 0 0 26 0 0 0 0 24 0 0 0 0 0 0 0 0 0 0 0 0 0 0 
		74 0 0 0 0 0 0 0 0 0 0 0 0 0 0 0 0 0 0 0 0 0 25 0 31 0 0 0 0 0 28 0 0 0 22 0 0 0 0 0 0 0 0 0 0 0 0 0 21 0 0 0 0 0 0 0 0 0 0 0 0 0 40 22 0 0 0 0 25 0 0 28 0 0 26 0 0 0 0 0 0 0 0 0 0 0 0 0 0 0 0 0 0 35 0 
		75 0 0 0 0 35 0 0 0 0 0 0 0 0 0 39 0 0 0 0 0 0 0 0 0 0 0 0 0 0 0 0 0 38 0 0 0 0 0 37 26 0 0 21 0 0 0 0 0 0 0 0 0 0 0 0 0 0 0 0 0 0 0 0 0 0 0 0 0 0 0 0 0 0 0 0 0 0 0 0 0 0 26 0 0 0 0 0 0 0 30 24 0 0 0 
		76 0 0 0 0 0 0 0 0 0 0 0 0 0 0 0 0 34 0 30 0 0 0 0 0 0 0 0 0 40 0 0 0 0 39 0 36 0 0 0 0 0 20 0 0 0 0 0 0 0 0 27 0 0 0 0 0 0 28 0 0 0 0 0 0 20 0 0 0 0 0 0 0 21 0 0 0 0 0 0 0 0 0 27 0 26 0 0 0 0 0 0 0 0 0 
		77 0 0 0 0 0 0 0 0 0 0 0 0 0 0 0 0 0 0 0 0 0 0 0 0 0 22 0 0 0 0 0 0 0 0 0 0 0 31 31 0 0 0 0 0 0 0 0 0 0 0 0 0 0 0 0 0 0 0 0 0 0 0 0 0 0 0 0 23 0 0 0 0 0 0 0 0 0 0 0 0 0 0 0 0 0 0 0 0 0 0 0 0 0 0 
		78 0 0 37 0 0 0 0 0 0 0 0 0 0 32 0 0 0 0 0 0 0 0 0 0 0 0 0 0 0 0 0 0 0 0 0 0 0 0 0 0 0 24 0 0 0 0 0 0 0 0 0 0 0 0 0 0 36 0 0 0 0 0 0 0 0 0 0 0 0 0 0 0 0 0 0 0 0 0 0 0 0 0 0 0 0 0 0 0 39 0 0 0 0 0 
		79 0 0 0 0 0 0 25 0 0 0 0 0 0 0 0 35 0 0 32 0 21 0 0 0 31 0 0 0 0 0 0 36 0 0 0 0 0 20 33 0 0 0 32 0 0 0 0 0 0 0 0 21 0 38 0 0 0 40 23 0 0 0 0 0 0 0 0 0 0 0 0 0 0 24 0 0 0 0 0 0 24 0 0 0 0 0 26 0 0 0 0 0 0 0 
		80 0 0 0 0 0 0 0 0 0 0 0 0 0 0 0 0 36 0 0 0 0 0 23 0 0 20 0 0 0 0 0 0 0 0 0 0 0 0 0 0 0 0 0 0 40 0 0 29 0 0 0 0 0 0 0 0 0 0 0 0 0 0 0 0 21 0 0 0 40 0 0 0 0 0 0 0 0 0 0 24 0 0 0 0 0 0 0 0 0 0 0 0 24 0 
		81 0 0 0 0 0 0 0 0 0 0 0 0 0 0 0 0 32 0 0 0 0 0 0 36 0 0 0 0 37 0 0 0 40 28 0 0 0 0 0 34 0 0 0 0 0 0 0 0 0 38 0 0 0 0 22 0 0 0 0 0 34 0 28 0 0 0 0 0 0 0 0 0 0 0 0 26 0 0 0 0 0 0 0 0 0 0 0 0 32 0 0 0 0 0 
		82 33 0 0 0 0 0 0 0 0 22 0 0 0 0 0 0 0 0 31 0 0 0 25 0 0 0 36 0 0 0 0 0 0 0 0 0 23 25 0 0 0 0 0 0 0 0 40 0 0 0 0 23 0 33 0 0 0 0 0 0 0 0 0 0 0 0 0 0 0 0 0 0 0 0 0 0 27 0 0 0 0 0 0 0 0 0 0 22 0 0 0 0 0 0 
		83 23 31 0 0 31 0 0 39 0 0 22 0 0 0 0 0 0 0 0 0 0 0 0 0 0 0 0 0 0 0 0 0 0 0 0 0 0 0 39 0 0 0 0 26 0 0 36 0 0 0 0 0 0 0 23 0 0 39 0 0 0 0 24 0 0 0 0 0 0 0 0 0 39 0 0 0 0 0 0 0 0 0 0 0 0 0 37 0 0 0 0 0 0 0 
		84 0 0 0 0 0 0 0 0 0 0 0 0 0 0 0 0 0 0 0 0 0 0 0 34 0 0 0 0 0 0 0 35 0 0 0 0 0 0 0 0 0 0 0 0 0 0 0 30 0 0 0 0 0 0 0 0 0 0 23 0 0 0 0 0 0 0 0 20 0 26 22 39 0 0 0 0 26 0 0 0 0 0 0 0 0 0 0 0 0 0 0 33 0 32 
		85 0 37 38 20 0 26 0 0 0 0 0 0 0 0 27 34 0 27 0 0 0 0 0 0 37 0 0 0 0 0 0 0 0 0 0 0 0 0 0 0 0 0 0 21 0 0 0 0 0 0 0 0 0 0 0 0 0 27 0 0 0 0 0 0 26 0 0 0 0 0 0 0 0 0 0 0 0 0 0 0 0 0 0 0 0 0 0 0 0 40 0 0 0 0 
		86 0 0 0 0 0 0 0 21 0 0 0 0 0 0 0 0 0 23 0 0 0 0 0 0 0 0 0 24 0 0 0 0 0 0 0 0 0 0 0 0 0 0 0 0 38 0 0 0 0 0 0 0 0 0 0 0 0 0 26 0 0 0 0 0 35 0 0 33 0 0 30 0 0 0 0 0 0 0 0 26 0 0 0 37 0 0 0 0 0 0 0 0 0 0 
		87 0 0 0 0 32 0 0 0 33 0 0 0 0 0 0 0 0 0 0 0 0 0 0 0 0 0 25 0 0 0 0 0 0 0 0 0 0 0 0 0 0 0 0 0 0 0 0 0 0 0 0 0 0 0 0 0 0 0 0 0 0 31 0 0 0 0 0 0 0 0 0 21 35 0 0 0 0 0 0 0 0 0 22 0 0 0 0 0 0 0 0 0 0 0 
		88 0 0 26 0 0 0 0 0 29 39 0 0 0 0 0 0 0 0 0 0 0 0 0 0 0 0 27 0 0 0 0 0 0 0 0 0 0 0 0 0 0 0 0 0 0 0 0 0 0 0 0 0 0 0 0 0 0 0 0 0 0 0 0 0 0 0 0 0 0 0 0 0 0 0 0 0 0 0 39 0 0 32 0 0 0 0 0 0 0 0 0 0 26 0 
		89 0 0 0 0 25 0 0 0 0 0 0 0 0 0 0 23 0 0 0 0 0 0 0 0 0 0 0 0 0 0 26 0 0 0 0 0 0 0 0 0 0 30 0 0 0 32 0 0 0 0 0 0 0 0 0 0 0 0 0 0 0 0 0 0 0 0 0 0 0 0 0 0 0 0 0 30 0 0 0 0 0 0 0 0 0 40 0 0 0 0 0 0 0 0 
		90 0 0 0 0 0 0 0 0 0 0 0 0 0 0 0 0 0 0 0 0 0 0 0 0 0 26 0 0 0 0 0 33 0 0 0 0 0 0 0 0 0 0 36 0 0 0 0 0 0 0 0 0 0 0 0 29 0 31 0 0 0 0 0 0 37 0 0 0 0 0 0 0 0 0 0 24 0 0 0 0 0 0 0 0 0 0 0 0 0 0 0 0 0 0 
		91 0 0 0 0 0 0 0 0 0 0 0 0 39 26 0 0 0 0 0 0 0 0 0 0 0 0 0 0 0 0 0 0 0 0 0 0 0 0 0 0 0 0 0 0 0 0 0 0 0 0 0 0 0 0 0 0 0 0 26 0 0 0 0 0 0 35 29 37 0 24 31 0 0 0 0 0 0 0 0 0 0 0 0 0 33 0 0 0 0 0 0 0 0 0 
		92 0 38 28 0 0 0 0 0 0 0 0 0 0 0 34 21 0 0 0 0 0 0 0 0 29 0 0 0 20 0 0 0 0 0 0 0 0 0 0 0 0 0 0 23 0 0 0 0 0 0 37 0 0 0 0 0 0 0 0 0 0 0 0 0 0 0 0 0 0 0 0 0 0 0 35 0 0 0 0 0 24 0 0 0 0 0 0 0 26 0 0 0 0 0 
		93 0 0 0 0 20 0 20 0 0 36 0 0 0 0 0 39 0 0 38 0 0 0 0 0 0 0 0 0 0 0 0 0 0 0 0 0 0 0 0 0 0 0 0 0 0 0 0 0 21 0 0 0 0 0 0 0 0 0 0 0 0 0 0 0 0 0 0 0 0 0 0 0 0 0 0 0 0 0 0 0 0 0 0 0 32 0 0 0 0 0 0 0 0 0 
;
